\ Model Minimizar compra de Mamógrafos
\ LP format - for model browsing. Use MPS format to capture full model detail.
Maximize
  - 4054.8 p + 1224 x[0,0] + 6940.875600649697 x[0,1]
   + 993.8010573142633 x[0,3] + 240.8464851018882 x[0,4]
   + 1223.875600649697 x[1,0] + 6941 x[1,1] + 424.8311849096982 x[1,2]
   + 993.8367695546275 x[1,3] + 240.911006806884 x[1,4]
   + 6940.831184909698 x[2,1] + 425 x[2,2] + 993.8516235753026 x[2,3]
   + 1223.801057314263 x[3,0] + 6940.836769554628 x[3,1]
   + 424.8516235753027 x[3,2] + 994 x[3,3] + 1223.846485101888 x[4,0]
   + 6940.911006806884 x[4,1] + 241 x[4,4]
Subject To
 R1_0: x[0,0] + x[1,0] + x[3,0] + x[4,0] <= 1
 R1_1: x[0,1] + x[1,1] + x[2,1] + x[3,1] + x[4,1] <= 1
 R1_2: x[1,2] + x[2,2] + x[3,2] <= 1
 R1_3: x[0,3] + x[1,3] + x[2,3] + x[3,3] <= 1
 R1_4: x[0,4] + x[1,4] + x[4,4] <= 1
 R2: y[0] + y[1] + y[2] + y[3] + y[4] - p = 0
 R3_0: - 6758 y[0] + 1224 x[0,0] + 6941 x[0,1] + 994 x[0,3] + 241 x[0,4]
   <= 0
 R3_1: - 6758 y[1] + 1224 x[1,0] + 6941 x[1,1] + 425 x[1,2] + 994 x[1,3]
   + 241 x[1,4] <= 0
 R3_2: - 6758 y[2] + 6941 x[2,1] + 425 x[2,2] + 994 x[2,3] <= 0
 R3_3: - 6758 y[3] + 1224 x[3,0] + 6941 x[3,1] + 425 x[3,2] + 994 x[3,3]
   <= 0
 R3_4: - 6758 y[4] + 1224 x[4,0] + 6941 x[4,1] + 241 x[4,4] <= 0
 R4_0: y[0] >= 0
 R4_1: y[1] >= 0
 R4_2: y[2] >= 0
 R4_3: y[3] >= 0
 R4_4: y[4] >= 0
 R5_0: y[0] >= 1
 R5_1: y[1] >= 1
 R5_2: y[2] >= 0
 R5_3: y[3] >= 0
 R5_4: y[4] >= 0
 R6_0: y[0] = 0
 R6_1: y[1] = 0
 R6_2: y[2] = 0
 R6_3: y[3] = 0
 R6_4: y[4] = 0
 R7_0: - 0.0333333333333333 y[0] + z[0] >= 0
 R7_1: - 0.0333333333333333 y[1] + z[1] >= 0
 R7_2: - 0.0333333333333333 y[2] + z[2] >= 0
 R7_3: - 0.0333333333333333 y[3] + z[3] >= 0
 R7_4: - 0.0333333333333333 y[4] + z[4] >= 0
 R8_0_0: - z[0] + x[0,0] = 0
 R8_1_1: - z[1] + x[1,1] = 0
 R8_2_2: - z[2] + x[2,2] = 0
 R8_3_3: - z[3] + x[3,3] = 0
 R8_4_4: - z[4] + x[4,4] = 0
 R9_0_0: z[0] - x[0,0] >= 0
 R9_0_1: z[0] - x[0,1] >= 0
 R9_0_2: z[0] - x[0,2] >= 0
 R9_0_3: z[0] - x[0,3] >= 0
 R9_0_4: z[0] - x[0,4] >= 0
 R9_1_0: z[1] - x[1,0] >= 0
 R9_1_1: z[1] - x[1,1] >= 0
 R9_1_2: z[1] - x[1,2] >= 0
 R9_1_3: z[1] - x[1,3] >= 0
 R9_1_4: z[1] - x[1,4] >= 0
 R9_2_0: z[2] - x[2,0] >= 0
 R9_2_1: z[2] - x[2,1] >= 0
 R9_2_2: z[2] - x[2,2] >= 0
 R9_2_3: z[2] - x[2,3] >= 0
 R9_2_4: z[2] - x[2,4] >= 0
 R9_3_0: z[3] - x[3,0] >= 0
 R9_3_1: z[3] - x[3,1] >= 0
 R9_3_2: z[3] - x[3,2] >= 0
 R9_3_3: z[3] - x[3,3] >= 0
 R9_3_4: z[3] - x[3,4] >= 0
 R9_4_0: z[4] - x[4,0] >= 0
 R9_4_1: z[4] - x[4,1] >= 0
 R9_4_2: z[4] - x[4,2] >= 0
 R9_4_3: z[4] - x[4,3] >= 0
 R9_4_4: z[4] - x[4,4] >= 0
Bounds
Binaries
 z[0] z[1] z[2] z[3] z[4] x[0,0] x[0,1] x[0,2] x[0,3] x[0,4] x[1,0] x[1,1]
 x[1,2] x[1,3] x[1,4] x[2,0] x[2,1] x[2,2] x[2,3] x[2,4] x[3,0] x[3,1]
 x[3,2] x[3,3] x[3,4] x[4,0] x[4,1] x[4,2] x[4,3] x[4,4]
Generals
 y[0] y[1] y[2] y[3] y[4] p
End
